
%    +-----------+
% 8  | | | | | | |
% 7  | | | | | | |
% 6  | |1|1| | | |
% 5  | |1|1| | | |
% 4  | | | | | | |
% 3  | | |2| | | |
% 2  | | | | |4| |
% 1  | | |3| | | |
%    +-----------+
n=6;
m=8;
h=2;
%maxT=15;
boxNumber=4;
boxSideLen = [2, 1, 1, 1];
boxStartX  = [2, 3, 3, 5];
boxStartY  = [5, 3, 1, 2];
